WARNING: for repeatability, setting FPU to use double precision
============================[ Problem Statistics ]=============================
|                                                                             |
|  Number of variables:           100                                         |
|  Number of clauses:             449                                         |
|  Parse time:                   0.00 s                                       |
|  Eliminated clauses:           0.00 Mb                                      |
|  Simplification time:          0.00 s                                       |
|                                                                             |
============================[ Search Statistics ]==============================
| Conflicts |          ORIGINAL         |          LEARNT          | Progress |
|           |    Vars  Clauses Literals |    Limit  Clauses Lit/Cl |          |
===============================================================================
|       100 |      99      448     1347 |      164      100      7 |  0.010 % |
|       250 |      99      448     1347 |      180      162      6 |  0.010 % |
===============================================================================
restarts              : 4
conflicts             : 427            (102251 /sec)
decisions             : 545            (0.00 % random) (130508 /sec)
propagations          : 10007          (2396312 /sec)
conflict literals     : 2909           (16.74 % deleted)
Memory used           : 13.00 MB
CPU time              : 0.004176 s

SATISFIABLE
